(set-logic BV) (define-fun origCir ((n295 Bool) (n261 Bool) (n253 Bool) (n170 Bool)) Bool (and n295 (xor n261 (and n253 n170)))) (synth-fun skel ((n295 Bool) (n261 Bool) (n253 Bool) (n170 Bool)) Bool) (declare-var n295 Bool) (declare-var n261 Bool) (declare-var n253 Bool) (declare-var n170 Bool) (constraint (= (origCir n295 n261 n253 n170) (skel n295 n261 n253 n170))) (check-synth)
